(declare-const a Real)
(declare-const b Real)
(declare-const c Real)
(assert (= (+ a b c) 1))
(assert (> a 0))
(assert (> b 0))
(assert (> c 0))
(assert (not (<= (+ (/ 68 3) (* -16 (pow (+ a (* b c)) (/ 1 2))) (* -16 (pow (+ b (* a c)) (/ 1 2))) (* -16 (pow (+ c (* a b)) (/ 1 2))) (* 8 a) (* 8 (pow b 4)) (* (/ 512 3) (pow c 3)) (* 8 a (pow 2 (/ 1 2))) (* 8 c (pow 2 (/ 1 2)))) 0)))
(check-sat)
(get-model)
(exit)